
(set-logic ALL) 

(declare-datatype MyList ((Nil) (Cons (head Real) (tail MyList)) )) 
(declare-fun l0 () MyList) 
(declare-fun l1 () MyList) 
(declare-fun l2 () MyList) 
(declare-fun l3 () MyList) 
(declare-fun i0 () Real) 
(declare-fun i1 () Real) 
(assert (not (is-Cons l1)) )
(assert (not (= l0 Nil)) )
(assert (= l0 Nil) )
(assert (or (= l2 l2) (= l1 l1) (= l1 Nil)) )
(assert (not (= l2 Nil)) )
(assert (or (is-Cons l3) (= l2 Nil) (= l2 Nil)) )
(assert (not (= l2 l0)) )
(assert (and (is-Nil Nil) (is-Nil Nil) (= l2 l0)) )
(check-sat)
